%%% static parameters %%%
timespan = 1;
Fact = [2];
Distr1 = [5];
Distr2 = [10];
Clients_N = [120];
Demand_W = [15];
Lt0 = [4];
Lt1 = [4];
SS_ = [0.85];
DS_D = [5];
K = [200];
MA = [500];
%%% dynamic parameters %%%
lost_ratio_sales_ret_th = 0.9346793463354934;
lost_ratio_sales_ret_w = 2;
lost_ratio_sales_dis_th = 0.8421223976518359;
lost_ratio_sales_dis_w = 84;
lost_ratio_sales_fac_th = 0.9543070286599884;
lost_ratio_sales_fac_w = 23;
stock_customer_MA_mean_relative_th = 0.7565106512541653;
stock_customer_MA_mean_relative_w = 49;
stock_distributor_MA_mean_relative_th = 0.11836406408504996;
stock_distributor_MA_mean_relative_w = 40;
stock_retailer_MA_mean_relative_th = 0.942895364848709;
stock_retailer_MA_mean_relative_w = 28;
stock_factory_MA_mean_relative_th = 0.2176049104226795;
stock_factory_MA_mean_relative_w = 39;
